Route #1: 37 7 4 16 42 40 38 25 11 46 17
Route #2: 49 22 29 41 3 27 36 14 31
Route #3: 8 45 5 10 18 48 44 12 47 1 24 15
Route #4: 50 28 19 43 33 9 30 23 2 6 32 20 13 21 34 39 26 35
Cost 6510847.000000